20
86.0
0 19 44.82 2.96
1 18 49.94 2.96
2 17 35.11 2.87
3 16 45.28 3.6
4 15 55.0 3.5
5 14 55.85 3.0
6 13 49.88 3.72
7 12 53.06 3.38
8 11 52.4 3.39
9 10 53.11 3.45
10 9 39.2 2.76
11 8 37.15 2.83
12 7 52.51 4.06
13 6 53.97 2.59
14 5 71.58 3.07
15 4 76.22 2.62
16 3 58.88 4.01
17 2 39.73 2.76
18 1 8.65 3.38
